N = 12;
H = 5;
T = 2;

avail = array3d(1..N, 1..H, 1..T, [2, 2, 8, 10, 6, 4, 3, 4, 6, 0, 8, 10, 4, 7, 5, 10, 10, 10, 7, 7, 0, 7, 8, 6, 2, 8, 8, 9, 0, 0, 5, 0, 0, 7, 1, 6, 2, 0, 4, 1, 9, 9, 2, 3, 2, 9, 9, 5, 7, 2, 1, 10, 8, 10, 7, 8, 4, 7, 10, 7, 6, 10, 0, 1, 5, 9, 4, 3, 6, 1, 9, 6, 4, 7, 2, 5, 2, 5, 6, 3, 6, 10, 4, 9, 7, 10, 10, 1, 5, 0, 1, 9, 7, 9, 6, 2, 2, 0, 9, 2, 10, 3, 4, 8, 2, 1, 10, 2, 8, 6, 6, 1, 9, 8, 2, 4, 5, 7, 6, 5]);

r = array2d(1..H, 1..T, [3, 3, 3, 2, 2, 2, 6, 2, 4, 4]);
